 vasp.5.2.2 15Apr09 complex
 executed on             LinuxIFC date 2017.01.11  16:25:02

 INCAR:
 POTCAR:    PAW Ni
 POTCAR:    PAW C
 POTCAR:    PAW O
 POTCAR:    PAW Ni
   VRHFIN =Ni:

   TITEL  = PAW Ni
   POMASS =   58.690; ZVAL   =   10.000    mass and valenz
   ENMAX  =  269.561; ENMIN  =  202.171 eV
   QCUT   =   -4.451; QGAM   =    8.902    optimization parameters

   Description
     l     E      TYP  RCUT    TYP  RCUT
     2   .000     23  2.300
     2   .000     23  2.300
     0   .000     23  2.300
     0   .000     23  2.300
     1  -.200     23  2.300
     1   .000     23  2.300
     3   .000      7   .000

 POTCAR:    PAW C
   VRHFIN =C: s2p2

[...]

 POTCAR:    PAW O
   VRHFIN =O: s2p4

   TITEL  = PAW O
   POMASS =   16.000; ZVAL   =    6.000    mass and valenz
   ENMAX  =  400.000; ENMIN  =  300.000 eV
   QCUT   =   -5.520; QGAM   =   11.040    optimization parameters

   Description
     l     E      TYP  RCUT    TYP  RCUT
     0   .000     23  1.200
     0  -.700     23  1.200
     1   .000     23  1.520
     1   .600     23  1.520
     2   .000      7  1.500

  PAW Ni                                :
  PAW C                                 :
  PAW O                                 :

 POSCAR: Ni - (111) + CO on-top
  positions in direct lattice
 exchange correlation table for  LEXCH =        7
   RHO(1)=    0.500       N(1)  =     2000
   RHO(2)=  100.500       N(2)  =     4000

 ion  position               nearest neighbor table
   1  0.000  0.000  0.000-   2 2.50   2 2.50   2 2.50
   2  0.333  0.667  0.111-   3 2.50   1 2.50   3 2.50   1 2.50   1 2.50   3 2.50
   3  0.667  0.333  0.222-   2 2.50   4 2.50   2 2.50   4 2.50   4 2.50   2 2.50
   4  0.000  0.000  0.333-   5 2.50   3 2.50   5 2.50   3 2.50   5 2.50   3 2.50
   5  0.333  0.667  0.444-   6 1.76   4 2.50   4 2.50   4 2.50
   6  0.333  0.667  0.540-   7 1.15   5 1.76
   7  0.333  0.667  0.603-   6 1.15

  LATTYP: Found a hexagonal cell.
 ALAT       =     2.4960868274
 C/A-ratio  =     7.3484695206

  Lattice vectors:

 A1 = (   2.4960869334,   0.0000000000,   0.0000000000)
 A2 = (  -1.2480434667,   2.1616745720,   0.0000000000)
 A3 = (   0.0000000000,   0.0000000000,  18.3424179720)
 Subroutine PRICEL returns:
 Original cell was already a primitive cell.

Analysis of symmetry for initial positions (statically):

 Routine SETGRP: Setting up the symmetry group for a
 hexagonal supercell.

 Subroutine GETGRP returns: Found  6 space group operations
 (whereof  6 operations were pure point group operations)
 out of a pool of 24 trial point group operations.

The static configuration has the point symmetry C_3v.

Analysis of symmetry for dynamics (positions and initial velocities):

 Subroutine DYNSYM returns: Found  6 space group operations
 (whereof  6 operations were pure point group operations)
 out of a pool of  6 trial space group operations
 (whereof  6 operations were pure point group operations)
 and found also     1 'primitive' translations

The dynamic configuration has the point symmetry C_3v.

Analysis of constrained symmetry for selective dynamics:

 Subroutine DYNSYM returns: Found  6 space group operations
 (whereof  6 operations were pure point group operations)
 out of a pool of  6 trial space group operations
 (whereof  6 operations were pure point group operations)
 and found also     1 'primitive' translations

The constrained configuration has the point symmetry C_3v.

 KPOINTS: K-Points

Automatic generation of k-mesh.

 Subroutine IBZKPT returns following result:

 Found     12 irreducible k-points:

 Following reciprocal coordinates:
            Coordinates               Weight
  0.000000  0.000000  0.000000      1.000000
  0.111111  0.000000  0.000000      6.000000
  0.222222  0.000000  0.000000      6.000000
  0.333333  0.000000  0.000000      6.000000
  0.444444  0.000000  0.000000      6.000000
  0.111111  0.111111  0.000000      6.000000
  0.222222  0.111111  0.000000     12.000000
  0.333333  0.111111  0.000000     12.000000
  0.444444  0.111111  0.000000      6.000000
  0.222222  0.222222  0.000000      6.000000
  0.333333  0.222222  0.000000     12.000000
  0.333333  0.333333  0.000000      2.000000

 Following cartesian coordinates:
            Coordinates               Weight
  0.000000  0.000000  0.000000      1.000000
  0.157135  0.090722  0.000000      6.000000
  0.314270  0.181444  0.000000      6.000000
  0.471405  0.272166  0.000000      6.000000
  0.628539  0.362887  0.000000      6.000000
  0.157135  0.272166  0.000000      6.000000
  0.314270  0.362887  0.000000     12.000000
  0.471405  0.453609  0.000000     12.000000
  0.628539  0.544331  0.000000      6.000000
  0.314270  0.544331  0.000000      6.000000
  0.471405  0.635053  0.000000     12.000000
  0.471405  0.816497  0.000000      2.000000

 I would recommend the setting:
   dimension x,y,z NGX =    12 NGY =   12 NGZ =   90
 SYSTEM =  CO adsorption on Ni(111)
 POSCAR =  Ni - (111) + CO on-top

 Startparameter for this run:
   NWRITE =      2    write-flag & timer
   PREC   = normal    medium, high low
   ISTART =      0    job   : 0-new  1-cont  2-samecut
   ICHARG =      2    charge: 1-file 2-atom 10-const
   ISPIN  =      1    spin polarized calculation?
   LNONCOLLINEAR =      F non collinear calculations
   LSORBIT =      F    spin-orbit coupling
   INIWAV =      1    electr: 0-lowe 1-rand  2-diag
   LASPH  =      F    aspherical Exc in radial PAW
   METAGGA=      F    non-selfconsistent MetaGGA calc.

 Electronic Relaxation 1
   ENCUT  =  400.0 eV  29.40 Ry    5.42 a.u.   4.07  4.07 29.91*2*pi/ulx,y,z
   ENINI  =  400.0     initial cutoff
   ENAUG  =  644.9 eV  augmentation charge cutoff
   NELM   =     60;   NELMIN=  2; NELMDL= -5     # of ELM steps
   EDIFF  = 0.1E-03   stopping-criterion for ELM
   LREAL  =      F    real-space projection
   LCOMPAT=      F    compatible to vasp.4.4
   LREAL_COMPAT= F    compatible to vasp.4.5.1-3
   GGA_COMPAT  = T    GGA compatible to vasp.4.4-vasp.4.6
   LMAXPAW     = -100 max onsite density
   LMAXMIX     =    2 max onsite mixed and CHGCAR
   VOSKOWN=      0    Vosko Wilk Nusair interpolation
   ROPT   =    0.00000   0.00000   0.00000
 Ionic relaxation
   EDIFFG = 0.1E-02   stopping-criterion for IOM
   NSW    =    100    number of steps for IOM
   NBLOCK =      1;   KBLOCK =    100    inner block; outer block
   IBRION =      1    ionic relax: 0-MD 1-quasi-New 2-CG
   NFREE  =      0    steps in history (QN), initial steepest desc. (CG)
   ISIF   =      2    stress and relaxation
   IWAVPR =     11    prediction:  0-non 1-charg 2-wave 3-comb
   ISYM   =      2    0-nonsym 1-usesym 2-fastsym
   LCORR  =      T    Harris-Foulkes like correction to forces

   POTIM  = 0.2000    time-step for ionic-motion
   TEIN   =    0.0    initial temperature
   TEBEG  =    0.0;   TEEND  =   0.0 temperature during run
   SMASS  =  -3.00    Nose mass-parameter (am)
   estimated Nose-frequenzy (Omega)   =  0.10E-29 period in steps =****** mass=  -0.142E-27a.u.
   NPACO  =    256;   APACO  = 16.0  distance and # of slots for P.C.
   PSTRESS=    0.0 pullay stress

  Mass of Ions in am
   POMASS =  58.69 12.01 16.00
  Ionic Valenz
   ZVAL   =  10.00  4.00  6.00
  Atomic Wigner-Seitz radii
   NELECT =      60.0000    total number of electrons
   NUPDOWN=      -1.0000    fix difference up-down

 DOS related values:
   EMIN   =  10.00;   EMAX   =-10.00  energy-range for DOS
   EFERMI =   0.00
   ISMEAR =     2;   SIGMA  =   0.20  broadening in eV -4-tet -1-fermi 0-gaus

 Electronic relaxation 2 (details)
   IALGO  =     68    algorithm
   LDIAG  =      T    sub-space diagonalisation
   IMIX   =      4    mixing-type and parameters
     AMIX     =   0.40;   BMIX     =  1.00
     AMIX_MAG =   1.60;   BMIX_MAG =  1.00
     AMIN     =   0.10
     WC   =   100.;   INIMIX=   1;  MIXPRE=   1

 Intra band minimization:
   WEIMIN = 0.0010     energy-eigenvalue tresh-hold
   EBREAK =  0.69E-06  absolut break condition
   DEPER  =   0.30     relativ break condition

   TIME   =   0.40     timestep for ELM

  volume/ion in A,a.u.               =      14.14        95.41
  Fermi-wavevector in a.u.,A,eV,Ry     =   1.385553  2.618315 26.119870  1.919756
  Thomas-Fermi vector in A             =   2.509952

 Write flags
   LWAVE  =      T    write WAVECAR
   LCHARG =      T    write CHGCAR
   LVTOT  =      F    write LOCPOT, local potential
   LELF   =      F    write electronic localiz. function (ELF)
   LORBIT =      0    0 simple, 1 ext, 2 COOP (PROOUT)

 Dipole corrections
   LMONO  =      F    monopole corrections only (constant potential shift)
   LDIPOL =      F    correct potential (dipole corrections)
   IDIPOL =      0    1-x, 2-y, 3-z, 4-all directions
   EPSILON=  1.0000000 bulk dielectric constant

 Exchange correlation treatment:
   GGA     =    --    GGA type
   VOSKOWN=      0    Vosko Wilk Nusair interpolation
   LHFCALC =     F    Hartree Fock is set to
   LHFONE  =     F    Hartree Fock one center treatment
   AEXX    =    0.0000 exact exchange contribution

 Linear response parameters
   LEPSILON=     F    determine dielectric tensor
   LRPA    =     F    only Hartree local field effects (RPA)
   LNABLA  =     F    use nabla operator in PAW spheres
   LVEL    =     F    velocity operator in full k-point grid
   LINTERFAST=   F  fast interpolation
   KINTER  =     0    interpolate to denser k-point grid
   CSHIFT  =0.1000    complex shift for real part using Kramers Kronig
   OMEGAMAX=  -1.0    maximum frequency

 Orbital magnetization related:
   ORBITALMAG=     F  switch on orbital magnetization
   LCHIMAG   =     F  perturbation theory with respect to B field

 quasi-Newton-method for relaxation of ions
   using selective dynamics as specified on POSCAR
 charge density and potential will be updated during run
 non-spin polarized calculation
 RMM-DIIS sequential band-by-band and
  variant of blocked Davidson during initial phase
 perform sub-space diagonalisation
    before iterative eigenvector-optimisation
 modified Broyden-mixing scheme, WC =      100.0
 initial mixing is a Kerker type mixing with AMIX =  0.4000 and BMIX =      1.0000
 Hartree-type preconditioning will be used
 using additional bands            6
 reciprocal scheme for non local part
 use partial core corrections
 calculate Harris-corrections to forces
   (improved forces if not selfconsistent)
 use gradient corrections
 use of overlap-Matrix (Vanderbilt PP)
 Methfessel and Paxton  Order N= 2 SIGMA  =   0.20

  energy-cutoff  :      400.00
  volume of cell :       98.97
      direct lattice vectors                 reciprocal lattice vectors
     2.496086933  0.000000000  0.000000000     0.400627072  0.231302161  0.000000000
    -1.248043467  2.161674572  0.000000000     0.000000000  0.462604322  0.000000000
     0.000000000  0.000000000 18.342417972     0.000000000  0.000000000  0.054518439

  length of vectors
     2.496086933  2.496086827 18.342417972     0.462604302  0.462604322  0.054518439

 k-points in units of 2pi/SCALE and weight: K-Points
   0.00000000  0.00000000  0.00000000       0.012
   0.15713484  0.09072185  0.00000000       0.074
   0.31426968  0.18144370  0.00000000       0.074
[...]

 First call to EWALD:  gamma=   0.383
 Maximum number of real-space cells 5x 5x 1
 Maximum number of reciprocal cells 2x 2x 9

----------------------------------------- Iteration    1(   1)  ---------------------------------------

 eigenvalue-minimisations  :   864
 total energy-change (2. order) : 0.4660166E+03  (-0.2453707E+04)
 number of electron   60.0000000 magnetization
 augmentation part    60.0000000 magnetization

 Free energy of the ion-electron system (eV)
  alpha Z        PSCENC =       330.36518305
  Ewald energy   TEWEN  =      4486.17921864
  -1/2 Hartree   DENC   =    -10634.70466857
  -exchange  EXHF       =         0.00000000
  -V(xc)+E(xc)   XCENC  =       198.15111553
  PAW double counting   =      4641.46468397    -4980.73307793
  entropy T*S    EENTRO =        -0.00458791
  eigenvalues    EBANDS =       447.65091712
  atomic energy  EATOM  =      5977.64779135
  free energy    TOTEN  =       466.01657526 eV

  energy without entropy =      466.02116317  energy(sigma->0) =      466.01772224

[...]

 eigenvalue-minimisations  :   868
 total energy-change (2. order) :-0.4453570E+03  (-0.4296568E+03)
 number of electron   60.0000000 magnetization
 augmentation part    60.0000000 magnetization

[...]

 Broyden mixing:
  rms(total) = 0.21655E+01    rms(broyden)= 0.21650E+01
  rms(prec ) = 0.24106E+01
  weight for this iteration     100.00

[...]

 eigenvalues of (default mixing * dielectric matrix)
  average eigenvalue GAMMA=   0.4526
  0.4526

[...]

 average (electrostatic) potential at core
  the test charge radii are     0.9791  0.6991  0.7215
  (the norm of the test charge is              1.0000)
       1 -45.2134       2 -45.4862       3 -45.4762       4 -45.4843       5 -46.0095
       6 -56.2901       7 -76.7224

 E-fermi :   1.6656     XC(G=0):  -9.9840     alpha+bet : -8.3093
   add alpha+bet to get absolut eigen values

 k-point   1 :       0.0000    0.0000    0.0000
  band No.  band energies     occupation
      1     -23.1709      2.00000
      2     -10.1801      2.00000
      3      -6.7968      2.00000
      4      -6.3956      2.00000
      5      -5.4982      2.00000
      6      -4.1907      2.00000
      7      -3.2392      2.00000
      8      -2.7719      2.00000
      9      -2.2313      2.00000
     10      -2.2296      2.00000
     11      -0.5561      2.00000
     12      -0.2980      2.00000
     13      -0.2270      2.00000
     14      -0.2270      2.00000
     15      -0.1737      2.00000
     16      -0.1737      2.00000
     17      -0.1544      2.00000
     18      -0.0742      2.00000
     19      -0.0742      2.00000
     20      -0.0152      2.00000
     21      -0.0152      2.00000
     22       0.1783      2.00000
     23       0.1783      2.00000
     24       0.3200      2.00000
     25       0.4153      2.00000
     26       0.4154      2.00000
     27       0.9413      1.99998
     28       0.9413      1.99998
     29       1.0636      1.99943
     30       1.0636      1.99943
     31       1.3870      2.03915
     32       1.3870      2.03916
     33       1.6447      1.21978
     34       1.6447      1.21976
     35       1.8904     -0.08861
     36       6.3271      0.00000

[...]

 soft charge-density along one line, spin component           1
         0         1         2         3         4         5         6         7         8         9
 total charge-density along one line

------------------------ aborting loop because EDIFF is reached ----------------------------------------

  FREE ENERGIE OF THE ION-ELECTRON SYSTEM (eV)
  free  energy   TOTEN  =       -40.830849 eV

  energy  without entropy=      -40.812749  energy(sigma->0) =      -40.826324

  FORCE on cell =-STRESS in cart. coord.  units (eV):
  Direction    XX          YY          ZZ          XY          YZ          ZX
  Alpha Z   330.36518   330.36518   330.36518
  Ewald    7803.93384  7803.93394-11121.68864    -0.00000     0.00002     0.00000
  Hartree  9721.49475  9721.49476 -8844.91795    -0.00000     0.00001     0.00000
  E(xc)    -320.97027  -320.97001  -320.12851     0.00022     0.00002     0.00001
  Local  -18207.55780-18207.55977 19324.21631    -0.00167    -0.00011    -0.00005
  n-local  -187.53548  -186.72814  -193.74582    -7.43182    -0.16510     1.48277
  augment   268.28721   268.28834   263.89448     0.00100    -0.00002     0.00002
  Kinetic   597.93636   590.54762   561.11761     9.96550     0.37006     0.86943
  Fock        0.00000     0.00000     0.00000     0.00000     0.00000     0.00000
  Total       2.66286     2.66286    -0.88735     0.00000     0.00000     0.00000
  in kB      43.10747    43.10747   -14.36480     0.00000     0.00000     0.00000

 VOLUME and BASIS-vectors are now :
  energy-cutoff  :      400.00
  volume of cell :       98.97
      direct lattice vectors                 reciprocal lattice vectors
     2.496086933  0.000000000  0.000000000     0.400627072  0.231302161  0.000000000
    -1.248043467  2.161674572  0.000000000     0.000000000  0.462604322  0.000000000
     0.000000000  0.000000000 18.342417972     0.000000000  0.000000000  0.054518439

[...]

 FORCES acting on ions
    electron-ion (+dipol)            ewald-force                    non-local-force                 convergence-correction
   0.602E-05 0.102E-04 0.271E+04   -.234E-06 -.213E-05 -.271E+04   -.260E-17 -.347E-17 -.174E+01   -.354E-07 -.942E-08 -.204E+01
   -.124E-05 -.101E-06 0.161E+04   0.704E-06 -.395E-06 -.160E+04   -.607E-17 0.173E-17 -.222E+00   -.228E-07 -.450E-07 -.774E+01
   -.652E-05 -.918E-05 0.490E+03   -.705E-06 0.407E-06 -.484E+03   0.217E-17 0.000E+00 0.389E-02   0.277E-07 0.213E-07 -.573E+01
   -.139E-04 -.248E-04 -.632E+03   -.127E-08 -.208E-07 0.634E+03   0.347E-17 -.694E-17 -.343E+00   -.165E-07 0.481E-07 -.143E+01
   -.159E-04 -.355E-04 -.172E+04   0.236E-06 0.213E-05 0.171E+04   -.104E-16 0.000E+00 0.485E+01   -.156E-07 -.652E-07 0.201E+01
   -.369E-03 -.651E-03 -.816E+03   0.591E-09 0.922E-08 0.797E+03   0.000E+00 0.000E+00 0.172E+02   0.120E-07 0.176E-07 0.167E+01
   0.309E-03 0.497E-03 -.159E+04   0.300E-10 0.633E-09 0.165E+04   0.000E+00 0.000E+00 -.636E+02   0.798E-07 0.157E-06 0.247E+01
   -.912E-04 -.213E-03 0.547E+02   0.172E-12 0.426E-13 -.682E-12   -.134E-16 -.867E-17 -.438E+02   0.292E-07 0.124E-06 -.108E+02

 POSITION                                       TOTAL-FORCE (eV/Angst)
      0.00000      0.00000      0.00000        -0.000000      0.000000      0.194472
     -0.00000      1.44112      2.03805         0.000000      0.000000     -0.094051
      1.24804      0.72056      4.07609         0.000000      0.000000     -0.014302
      0.00000      0.00000      6.11414         0.000000      0.000000     -0.155146
     -0.00000      1.44112      8.15219         0.000000     -0.000000      0.064927
     -0.00000      1.44112      9.91024         0.000000     -0.000000     -0.538211
     -0.00000      1.44112     11.06027         0.000000      0.000000      0.542311
    total drift:                               -0.000091     -0.000213      0.068736

 Quasi-Newton relaxation of ions (Broydens 2nd method)
  g(Force)  = 0.118E-01   g(Stress)= 0.000E+00

 Reset! Starting new Quasi-Newton update for ions

[...]

 POSITION                                       TOTAL-FORCE (eV/Angst)
      0.00000      0.00000      0.00000        -0.000000     -0.000000      0.173994
     -0.00000      1.44112      2.03805         0.000000      0.000000     -0.106993
      1.24804      0.72056      4.07609         0.000000      0.000000     -0.029949
      0.00000      0.00000      6.11115         0.000000      0.000000     -0.122013
     -0.00000      1.44112      8.15344         0.000000      0.000000     -0.102972
     -0.00000      1.44112      9.89985         0.000000      0.000000      1.829187
     -0.00000      1.44112     11.07074         0.000000      0.000000     -1.641254
    total drift:                               -0.000092     -0.000213      0.023406
 d Force =-0.1206314E-01[-0.359E-01, 0.118E-01]  d Energy =-0.1223258E-01 0.169E-03
 d Force = 0.9099550E+01[ 0.896E+01, 0.923E+01]  d Ewald  = 0.9098806E+01 0.744E-03

[...]

 retain information from N=  1 steps
 eigenvalues of (default step * inverse Hessian matrix)
  average eigenvalue of G=   0.2379
 eigenvalue spectrum of G is  0.2379

[...]

 POSITION                                       TOTAL-FORCE (eV/Angst)
      0.00000      0.00000      0.00000        -0.000000      0.000000      0.169875
     -0.00000      1.44112      2.03805         0.000000      0.000000     -0.105513
      1.24804      0.72056      4.07609         0.000000      0.000000     -0.015798
      0.00000      0.00000      6.11059         0.000000      0.000000     -0.106558
     -0.00000      1.44112      8.15297         0.000000     -0.000000      0.028414
     -0.00000      1.44112      9.90825         0.000000      0.000000      0.041950
     -0.00000      1.44112     11.06320        -0.000000      0.000000     -0.012371
    total drift:                               -0.000092     -0.000214     -0.007474
 d Force = 0.1416643E-01[ 0.492E-03, 0.278E-01]  d Energy = 0.1456616E-01-0.400E-03
 d Force =-0.6780287E+01[-0.685E+01,-0.671E+01]  d Ewald  =-0.6779959E+01-0.329E-03

[...]

 eigenvalue-minimisations  :   674
 total energy-change (2. order) :-0.7963863E-03  (-0.5101099E-04)
 number of electron   59.9999454 magnetization
 augmentation part    31.5881219 magnetization

[...]

 Broyden mixing:
  rms(total) = 0.11552E-01    rms(broyden)= 0.11527E-01
  rms(prec ) = 0.17902E-01
  weight for this iteration     100.00

 eigenvalues of (default mixing * dielectric matrix)
  average eigenvalue GAMMA=   0.0621
  0.0691  0.0550

[...]

----------------------------------------- Iteration    4(   4)  ---------------------------------------

 eigenvalue-minimisations  :   433
 total energy-change (2. order) : 0.4561670E-04  (-0.3270319E-05)
 number of electron   59.9999454 magnetization
 augmentation part    31.5900723 magnetization

 Free energy of the ion-electron system (eV)
  alpha Z        PSCENC =       330.36518305
  Ewald energy   TEWEN  =      4483.63402996
  -1/2 Hartree   DENC   =    -10574.51976067
  -exchange  EXHF       =         0.00000000
  -V(xc)+E(xc)   XCENC  =       194.40359330
  PAW double counting   =      4975.33742111    -5322.55547560
  entropy T*S    EENTRO =        -0.01823468
  eigenvalues    EBANDS =      -105.12786490
  atomic energy  EATOM  =      5977.64779135
  free energy    TOTEN  =       -40.83331708 eV

  energy without entropy =      -40.81508240  energy(sigma->0) =      -40.82875841

 average (electrostatic) potential at core
  the test charge radii are     0.9791  0.6991  0.7215
  (the norm of the test charge is              1.0000)
       1 -45.2139       2 -45.4731       3 -45.4631       4 -45.4725       5 -45.9929
       6 -56.2571       7 -76.6572

 E-fermi :   1.6757     XC(G=0):  -9.8747     alpha+bet : -8.3093
   add alpha+bet to get absolut eigen values

[...]

 k-point  12 :       0.3333    0.3333    0.0000
  band No.  band energies     occupation
      1     -21.4854      2.00000
      2      -6.4719      2.00000
      3      -6.1640      2.00000
      4      -6.1629      2.00000
      5      -4.2316      2.00000
      6      -1.6305      2.00000
      7      -1.5563      2.00000
      8      -1.3848      2.00000
      9      -1.3418      2.00000
     10      -1.2955      2.00000
     11      -1.2861      2.00000
     12      -1.1913      2.00000
     13      -1.0805      2.00000
     14      -0.9639      2.00000
     15      -0.9209      2.00000
     16      -0.6977      2.00000
     17      -0.5749      2.00000
     18      -0.4768      2.00000
     19      -0.3593      2.00000
     20       0.0311      2.00000
     21       0.1475      2.00000
     22       0.5418      2.00000
     23       0.7836      2.00000
     24       0.8096      2.00000
     25       0.9751      1.99996
     26       1.4049      2.04626
     27       1.5195      2.07661
     28       1.5396      2.03113
     29       1.5561      1.97321
     30       1.9079     -0.08248
     31       3.1378      0.00000
     32       3.1700      0.00000
     33       6.7604      0.00000
     34       6.8500      0.00000
     35       7.0815      0.00000
     36       7.3192      0.00000

 soft charge-density along one line, spin component           1
         0         1         2         3         4         5         6         7         8         9
 total charge-density along one line

------------------------ aborting loop because EDIFF is reached ----------------------------------------

  FREE ENERGIE OF THE ION-ELECTRON SYSTEM (eV)
  free  energy   TOTEN  =       -40.833317 eV

  energy  without entropy=      -40.815082  energy(sigma->0) =      -40.828758

  FORCE on cell =-STRESS in cart. coord.  units (eV):
  Direction    XX          YY          ZZ          XY          YZ          ZX
  Alpha Z   330.36518   330.36518   330.36518
  Ewald    7801.98113  7801.98122-11120.32840    -0.00000     0.00002     0.00000
  Hartree  9702.42449  9702.42450 -8825.99578    -0.00000     0.00001     0.00000
  E(xc)    -320.93878  -320.93864  -320.10788     0.00012     0.00002     0.00001
  Local  -18186.44161-18186.44358 19303.43785    -0.00167    -0.00011    -0.00005
  n-local  -187.49239  -186.70689  -193.50028    -7.42910    -0.16369     1.47960
  augment   268.28129   268.28263   263.93117     0.00112     0.00009    -0.00001
  Kinetic   597.81997   590.42539   560.81708     9.93580     0.36597     0.85945
  Fock        0.00000     0.00000     0.00000     0.00000     0.00000     0.00000
  Total       2.69454     2.69454    -1.38106     0.00000     0.00000    -0.00000
  in kB      43.62029    43.62028   -22.35720     0.00000     0.00000    -0.00000

 VOLUME and BASIS-vectors are now :
  energy-cutoff  :      400.00
  volume of cell :       98.97
      direct lattice vectors                 reciprocal lattice vectors
     2.496086933  0.000000000  0.000000000     0.400627072  0.231302161  0.000000000
    -1.248043467  2.161674572  0.000000000     0.000000000  0.462604322  0.000000000
     0.000000000  0.000000000 18.342417972     0.000000000  0.000000000  0.054518439

  length of vectors
     2.496086933  2.496086827 18.342417972     0.462604302  0.462604322  0.054518439

 FORCES acting on ions
    electron-ion (+dipol)            ewald-force                    non-local-force                 convergence-correction
   0.575E-05 0.103E-04 0.271E+04   -.234E-06 -.213E-05 -.271E+04   0.867E-18 -.347E-17 -.170E+01   0.516E-08 -.101E-07 -.231E+00
   -.121E-05 -.980E-07 0.160E+04   0.704E-06 -.395E-06 -.160E+04   0.173E-17 0.000E+00 -.215E+00   0.235E-08 -.372E-11 -.156E+01
   -.660E-05 -.917E-05 0.486E+03   -.709E-06 0.377E-06 -.484E+03   0.434E-17 0.000E+00 0.224E-01   -.503E-07 0.178E-07 -.159E+01
   -.143E-04 -.254E-04 -.639E+03   0.704E-08 0.450E-07 0.639E+03   -.867E-17 0.694E-17 -.294E+00   -.122E-05 0.702E-06 -.297E+00
   -.157E-04 -.351E-04 -.172E+04   0.231E-06 0.209E-05 0.171E+04   0.000E+00 0.000E+00 0.483E+01   0.212E-07 0.191E-07 0.700E+00
   -.366E-03 -.646E-03 -.816E+03   0.584E-09 0.912E-08 0.799E+03   -.347E-17 0.000E+00 0.171E+02   -.167E-07 -.266E-07 0.304E+00
   0.306E-03 0.492E-03 -.158E+04   0.293E-10 0.618E-09 0.165E+04   0.867E-18 0.173E-17 -.632E+02   -.166E-07 -.250E-07 0.466E+00
   -.920E-04 -.214E-03 0.457E+02   0.172E-12 0.426E-13 -.455E-12   -.434E-17 0.520E-17 -.435E+02   -.128E-05 0.678E-06 -.221E+01

 POSITION                                       TOTAL-FORCE (eV/Angst)
      0.00000      0.00000      0.00000         0.000000      0.000000      0.176123
     -0.00000      1.44112      2.03805         0.000000      0.000000     -0.104622
      1.24804      0.72056      4.07609         0.000000     -0.000000     -0.034271
      0.00000      0.00000      6.10852        -0.000000      0.000000     -0.086237
     -0.00000      1.44112      8.15355        -0.000000      0.000000      0.008952
     -0.00000      1.44112      9.90864        -0.000000      0.000000      0.016953
     -0.00000      1.44112     11.06334         0.000000      0.000000      0.023102
    total drift:                               -0.000093     -0.000213      0.016480
 d Force = 0.2218784E-03[ 0.193E-03, 0.251E-03]  d Energy = 0.1343359E-03 0.875E-04
 d Force = 0.2263414E+00[ 0.224E+00, 0.229E+00]  d Ewald  = 0.2263415E+00-0.841E-07

 Quasi-Newton relaxation of ions (Broydens 2nd method)
  g(Force)  = 0.161E-03   g(Stress)= 0.000E+00

 retain information from N=  2 steps
 eigenvalues of (default step * inverse Hessian matrix)
  average eigenvalue of G=   0.1927
 eigenvalue spectrum of G is  0.2923  0.0932

 reached required accuracy - stopping structural energy minimisation
 writing wavefunctions